p cnf 59 186
2 3 -4 0
-2 -3 -4 0
2 -3 4 0
-2 3 4 0
-5 -1 0
-5 4 0
1 -4 5 0
1 -5 -6 0
-1 5 -6 0
1 5 6 0
-1 -5 6 0
7 -6 0
7 2 0
6 -2 -7 0
9 -1 0
9 -8 0
1 8 -9 0
-7 -9 -10 0
7 9 -10 0
-7 9 10 0
7 -9 10 0
-13 -11 0
-13 12 0
11 -12 13 0
14 13 0
14 -8 0
-13 8 -14 0
14 -5 -15 0
-14 5 -15 0
14 5 15 0
-14 -5 15 0
-17 18 -19 0
17 -18 -19 0
-17 -18 19 0
17 18 19 0
16 -19 -20 0
-16 19 -20 0
16 19 20 0
-16 -19 20 0
22 -3 0
22 21 0
3 -21 -22 0
22 -23 -24 0
-22 23 -24 0
22 23 24 0
-22 -23 24 0
20 -24 -25 0
-20 24 -25 0
20 24 25 0
-20 -24 25 0
26 15 0
26 -25 0
-15 25 -26 0
-10 26 -27 0
10 -26 -27 0
-10 -26 27 0
10 26 27 0
-28 -23 0
-28 -8 0
23 8 28 0
28 29 -30 0
-28 -29 -30 0
28 -29 30 0
-28 29 30 0
-31 -30 0
-31 7 0
30 -7 31 0
-32 -27 0
-32 -31 0
27 31 32 0
-34 -33 0
-34 -16 0
33 16 34 0
13 28 -35 0
-13 -28 -35 0
13 -28 35 0
-13 28 35 0
16 3 -36 0
-16 -3 -36 0
16 -3 36 0
-16 3 36 0
37 36 0
37 -8 0
-36 8 -37 0
-38 -12 0
-38 21 0
12 -21 38 0
37 38 -39 0
-37 -38 -39 0
37 -38 39 0
-37 38 39 0
-40 35 0
-40 39 0
-35 -39 40 0
-41 -34 0
-41 -40 0
34 40 41 0
43 -12 0
43 42 0
12 -42 -43 0
44 29 0
44 -43 0
-29 43 -44 0
-14 21 -45 0
14 -21 -45 0
-14 -21 45 0
14 21 45 0
-46 -45 0
-46 -42 0
45 42 46 0
47 16 0
47 -21 0
-16 21 -47 0
-48 -36 0
-48 -5 0
36 5 48 0
47 -48 -49 0
-47 48 -49 0
47 48 49 0
-47 -48 49 0
50 -46 0
50 -49 0
46 49 -50 0
-51 44 0
-51 -50 0
-44 50 51 0
41 51 -52 0
-41 -51 -52 0
41 -51 52 0
-41 51 52 0
-53 32 0
-53 52 0
-32 -52 53 0
-54 12 0
-54 -23 0
-12 23 54 0
55 -54 0
55 -54 0
54 -55 0
-56 13 0
-56 55 0
-13 -55 56 0
21 6 -57 0
-21 -6 -57 0
21 -6 57 0
-21 6 57 0
56 57 -58 0
-56 -57 -58 0
56 -57 58 0
-56 57 58 0
-53 -58 -59 0
53 58 -59 0
-53 58 59 0
53 -58 59 0
43 -4 0
37 14 -4 0
-46 59 -24 0
-54 -47 0
42 -28 0
17 20 -38 -35 26 0
37 39 16 34 31 0
-12 10 0
-50 -24 -2 -55 -40 0
-4 -46 -48 7 -16 0
-8 45 57 -16 0
-48 -36 -37 30 16 0
-24 33 0
54 56 -49 2 0
-32 59 7 39 0
-41 -8 34 0
58 -57 -12 -3 28 31 0
-5 -17 0
-30 50 13 18 14 0
34 -51 35 57 8 -39 0
-36 -2 0
20 39 -22 55 29 6 0
57 -39 -45 -32 0
-19 -20 8 -30 21 -49 0
36 38 57 7 0
42 -26 20 51 58 -3 0
12 51 55 0
-33 44 -12 0
-27 -47 28 54 -4 0
-46 -27 0
-28 42 0
59 0
